c File: instances/30_0.50_1.col
c
c Description: Random graph of size 30 vertices and P(0.49999999999999994) of edges between any two vertices.
p col 30 435
e 1 2
e 1 3
e 1 4
e 1 6
e 1 7
e 1 8
e 1 10
e 1 15
e 1 16
e 1 18
e 1 19
e 1 20
e 1 21
e 1 28
e 1 29
e 1 30
e 2 4
e 2 5
e 2 6
e 2 9
e 2 13
e 2 17
e 2 18
e 2 19
e 2 25
e 2 29
e 2 30
e 3 4
e 3 6
e 3 17
e 3 19
e 3 20
e 3 21
e 3 22
e 3 24
e 3 27
e 3 28
e 3 30
e 4 5
e 4 8
e 4 10
e 4 13
e 4 14
e 4 16
e 4 17
e 4 19
e 4 21
e 4 23
e 4 24
e 4 29
e 5 6
e 5 7
e 5 10
e 5 13
e 5 15
e 5 16
e 5 19
e 5 21
e 5 22
e 5 28
e 5 29
e 6 8
e 6 10
e 6 16
e 6 19
e 6 23
e 6 27
e 6 30
e 7 8
e 7 12
e 7 14
e 7 15
e 7 18
e 7 21
e 7 24
e 7 26
e 7 27
e 7 28
e 7 29
e 7 30
e 8 10
e 8 12
e 8 13
e 8 14
e 8 16
e 8 17
e 8 19
e 8 20
e 8 23
e 8 26
e 8 27
e 8 28
e 8 29
e 8 30
e 9 11
e 9 13
e 9 16
e 9 19
e 9 21
e 9 22
e 9 25
e 9 26
e 9 27
e 9 28
e 10 14
e 10 16
e 10 20
e 10 21
e 10 24
e 10 25
e 10 26
e 10 28
e 11 12
e 11 14
e 11 15
e 11 16
e 11 19
e 11 20
e 11 25
e 11 29
e 12 13
e 12 14
e 12 16
e 12 17
e 12 19
e 12 21
e 12 22
e 12 23
e 12 25
e 12 26
e 12 27
e 12 29
e 13 14
e 13 15
e 13 18
e 13 19
e 13 20
e 13 25
e 13 27
e 13 28
e 14 16
e 14 20
e 14 22
e 14 25
e 14 26
e 14 27
e 14 28
e 15 21
e 15 23
e 15 24
e 15 26
e 15 27
e 15 30
e 16 18
e 16 19
e 16 21
e 16 23
e 16 25
e 16 26
e 16 27
e 16 29
e 16 30
e 17 19
e 17 22
e 17 23
e 17 24
e 17 25
e 17 28
e 18 20
e 18 21
e 18 22
e 18 25
e 18 27
e 18 28
e 18 30
e 19 23
e 19 24
e 19 25
e 19 26
e 19 27
e 19 28
e 19 29
e 20 21
e 20 23
e 20 25
e 20 26
e 20 27
e 20 29
e 20 30
e 21 23
e 21 26
e 21 30
e 22 23
e 22 24
e 22 25
e 22 27
e 22 28
e 23 28
e 23 29
e 23 30
e 24 29
e 28 29
e 28 30